SYSTEM = diamond
PREC = Accurate
NCORE=2
ENCUT = 520.0
ISTART = 0
ICHARG = 2
LWAVE= .TURE.
EDIFF = 1e-7
ISMEAR = 0
SIGMA = 0.2
POTIM = 0.100
LCHARG = .TURE.
LWAVE = FALSE
NSW=300
IBRION=2
NEDOS=2000
EDIFFG = -0.001




