CsPbI3_325K                             
   1.00000000000000     
     8.6751003265000008    0.0000000000000000    0.0000000000000000
     0.0000000000000000    8.8240003585999993    0.0000000000000000
     0.0000000000000000    0.0000000000000000   12.5257997512999992
   I    Pb   Cs
    12     4     4
Direct
  0.1922705132762417  0.3058740580835604  0.5402816318776402
  0.8077294317237573  0.6941258879164351  0.4597183681223598
  0.6922705682762427  0.1941259419164396  0.4597183681223598
  0.3077294867237583  0.8058741120835649  0.5402816318776402
  0.8077294317237573  0.6941258879164351  0.0402816388776372
  0.1922705132762417  0.3058740580835604  0.9597183681223598
  0.3077294867237583  0.8058741120835649  0.9597183681223598
  0.6922705682762427  0.1941259419164396  0.0402816388776372
  0.9175797676499045  0.0000744723564168  0.7500000189999980
  0.0824201703500975  0.9999255336435837  0.2500000000000000
  0.4175798226498983  0.4999255276435832  0.2500000000000000
  0.5824201773501017  0.5000744723564168  0.7500000189999980
  0.0000000000000000  0.0000000000000000  0.5000000000000000
  0.5000000000000000  0.5000000000000000  0.5000000000000000
  0.0000000000000000  0.0000000000000000  0.0000000000000000
  0.5000000000000000  0.5000000000000000  0.0000000000000000
  0.9780566585916830  0.4243882535700649  0.2500000000000000
  0.0219433394083168  0.5756117464299351  0.7500000189999980
  0.4780566585916830  0.0756117394299309  0.7500000189999980
  0.5219433414083170  0.9243882535700649  0.2500000000000000
 
  0.00000000E+00  0.00000000E+00  0.00000000E+00
  0.00000000E+00  0.00000000E+00  0.00000000E+00
  0.00000000E+00  0.00000000E+00  0.00000000E+00
  0.00000000E+00  0.00000000E+00  0.00000000E+00
  0.00000000E+00  0.00000000E+00  0.00000000E+00
  0.00000000E+00  0.00000000E+00  0.00000000E+00
  0.00000000E+00  0.00000000E+00  0.00000000E+00
  0.00000000E+00  0.00000000E+00  0.00000000E+00
  0.00000000E+00  0.00000000E+00  0.00000000E+00
  0.00000000E+00  0.00000000E+00  0.00000000E+00
  0.00000000E+00  0.00000000E+00  0.00000000E+00
  0.00000000E+00  0.00000000E+00  0.00000000E+00
  0.00000000E+00  0.00000000E+00  0.00000000E+00
  0.00000000E+00  0.00000000E+00  0.00000000E+00
  0.00000000E+00  0.00000000E+00  0.00000000E+00
  0.00000000E+00  0.00000000E+00  0.00000000E+00
  0.00000000E+00  0.00000000E+00  0.00000000E+00
  0.00000000E+00  0.00000000E+00  0.00000000E+00
  0.00000000E+00  0.00000000E+00  0.00000000E+00
  0.00000000E+00  0.00000000E+00  0.00000000E+00
