delta-Cesium_Lead_Iodide                
   1.00000000000000     
    10.4342002868999995    0.0000000000000000    0.0000000000000000
     0.0000000000000000    4.7905001640000000    0.0000000000000000
     0.0000000000000000    0.0000000000000000   17.7609996796000011
   Pb   I    Cs
     4    12     4
Direct
  0.1611067599341360  0.2500000000000000  0.4388864549945489
  0.8388931830658629  0.7499999750000015  0.5611135180054452
  0.3388932280658630  0.7499999750000015  0.9388865359945522
  0.6611067719341369  0.2500000000000000  0.0611135450054511
  0.1599754344655507  0.2500000000000000  0.0020874935680466
  0.8400246105344495  0.7499999750000015  0.9979125074319570
  0.3400245655344493  0.7499999750000015  0.5020875465680403
  0.6599754344655506  0.2500000000000000  0.4979125074319571
  0.3003965231554815  0.2500000000000000  0.2848219095093412
  0.6996034538445273  0.7499999750000015  0.7151781164906610
  0.1996034768445185  0.7499999750000015  0.7848218835093390
  0.8003965461554727  0.2500000000000000  0.2151780904906589
  0.0338069660902755  0.2500000000000000  0.6135511488833403
  0.9661930279097241  0.7499999750000015  0.3864488781166584
  0.4661930279097240  0.7499999750000015  0.1135511888833436
  0.5338069720902759  0.2500000000000000  0.8864488511166597
  0.4172016842687105  0.2500000000000000  0.6719738061399732
  0.5827983157312896  0.7499999750000015  0.3280261938600268
  0.0827983327312874  0.7499999750000015  0.1719738061399732
  0.9172016842687104  0.2500000000000000  0.8280261938600268
 
  0.00000000E+00  0.00000000E+00  0.00000000E+00
  0.00000000E+00  0.00000000E+00  0.00000000E+00
  0.00000000E+00  0.00000000E+00  0.00000000E+00
  0.00000000E+00  0.00000000E+00  0.00000000E+00
  0.00000000E+00  0.00000000E+00  0.00000000E+00
  0.00000000E+00  0.00000000E+00  0.00000000E+00
  0.00000000E+00  0.00000000E+00  0.00000000E+00
  0.00000000E+00  0.00000000E+00  0.00000000E+00
  0.00000000E+00  0.00000000E+00  0.00000000E+00
  0.00000000E+00  0.00000000E+00  0.00000000E+00
  0.00000000E+00  0.00000000E+00  0.00000000E+00
  0.00000000E+00  0.00000000E+00  0.00000000E+00
  0.00000000E+00  0.00000000E+00  0.00000000E+00
  0.00000000E+00  0.00000000E+00  0.00000000E+00
  0.00000000E+00  0.00000000E+00  0.00000000E+00
  0.00000000E+00  0.00000000E+00  0.00000000E+00
  0.00000000E+00  0.00000000E+00  0.00000000E+00
  0.00000000E+00  0.00000000E+00  0.00000000E+00
  0.00000000E+00  0.00000000E+00  0.00000000E+00
  0.00000000E+00  0.00000000E+00  0.00000000E+00
