delta-Cesium_Lead_Iodide                
   1.00000000000000     
    10.4342002868999995    0.0000000000000000    0.0000000000000000
     0.0000000000000000    4.7905001640000000    0.0000000000000000
     0.0000000000000000    0.0000000000000000   17.7609996796000011
   Pb   I    Cs
     4    12     4
Direct
  0.1609392536672090  0.2500000000000000  0.4390139597365206
  0.8390606893327899  0.7499999750000015  0.5609860132634736
  0.3390607343327900  0.7499999750000015  0.9390140407365237
  0.6609392656672100  0.2500000000000000  0.0609860402634794
  0.1599170779301105  0.2500000000000000  0.0019825270512968
  0.8400829670698897  0.7499999750000015  0.9980174739487069
  0.3400829220698895  0.7499999750000015  0.5019825800512905
  0.6599170779301105  0.2500000000000000  0.4980174739487069
  0.3002320187033831  0.2500000000000000  0.2849789829057343
  0.6997679582966256  0.7499999750000015  0.7150210430942678
  0.1997679812966169  0.7499999750000015  0.7849789569057322
  0.8002320417033744  0.2500000000000000  0.2150210170942657
  0.0338817876683777  0.2500000000000000  0.6137283676913796
  0.9661182063316218  0.7499999750000015  0.3862716593086191
  0.4661182063316218  0.7499999750000015  0.1137284076913829
  0.5338817936683782  0.2500000000000000  0.8862716323086204
  0.4171310151705541  0.2500000000000000  0.6719304683715350
  0.5828689848294459  0.7499999750000015  0.3280695316284650
  0.0828690018294438  0.7499999750000015  0.1719304683715350
  0.9171310151705541  0.2500000000000000  0.8280695316284650
 
  0.00000000E+00  0.00000000E+00  0.00000000E+00
  0.00000000E+00  0.00000000E+00  0.00000000E+00
  0.00000000E+00  0.00000000E+00  0.00000000E+00
  0.00000000E+00  0.00000000E+00  0.00000000E+00
  0.00000000E+00  0.00000000E+00  0.00000000E+00
  0.00000000E+00  0.00000000E+00  0.00000000E+00
  0.00000000E+00  0.00000000E+00  0.00000000E+00
  0.00000000E+00  0.00000000E+00  0.00000000E+00
  0.00000000E+00  0.00000000E+00  0.00000000E+00
  0.00000000E+00  0.00000000E+00  0.00000000E+00
  0.00000000E+00  0.00000000E+00  0.00000000E+00
  0.00000000E+00  0.00000000E+00  0.00000000E+00
  0.00000000E+00  0.00000000E+00  0.00000000E+00
  0.00000000E+00  0.00000000E+00  0.00000000E+00
  0.00000000E+00  0.00000000E+00  0.00000000E+00
  0.00000000E+00  0.00000000E+00  0.00000000E+00
  0.00000000E+00  0.00000000E+00  0.00000000E+00
  0.00000000E+00  0.00000000E+00  0.00000000E+00
  0.00000000E+00  0.00000000E+00  0.00000000E+00
  0.00000000E+00  0.00000000E+00  0.00000000E+00
