SYSTEM = diamond
PREC = Accurate
NCORE=2
ENCUT = 520.0
ISTART = 1
ICHARG = 11
LORBIT=10
LWAVE= .TURE.
EDIFF = 1e-6
ISMEAR = 1
SIGMA = 0.2
POTIM = 0.100
LCHARG = .TURE.
LWAVE = FALSE
NSW=0
IBRION=2
NEDOS=2000





